c ---- [ banner ] ------------------------------------------------------------
c
c Kissat SAT Solver
c 
c Copyright (c) 2021-2022 Armin Biere University of Freiburg
c Copyright (c) 2019-2021 Armin Biere Johannes Kepler University Linz
c 
c Version 3.0.0 97917ddf2b12adc6f63c7b2a5a403a1ee7d81836
c gcc (Ubuntu 9.4.0-1ubuntu1~20.04.1) 9.4.0 -W -Wall -O3 -DNDEBUG
c Fri Oct 7 14:23:58 PDT 2022 Linux jap-Lenovo-Yoga-C740-15IML 5.15.0-48-generic x86_64
c
c ---- [ parsing ] -----------------------------------------------------------
c
c opened and reading DIMACS file:
c
c   Pigeon8Holes3
c
c parsed 'p cnf 24 92' header
c closing input after reading 868 bytes
c finished parsing after 0.00 seconds
c
c ---- [ solving ] -----------------------------------------------------------
c
c  seconds switched rate      trail variables
c         MB reductions conflicts glue  remaining
c          level restarts redundant irredundant
c
c *  0.00  1 0 0 0  0 0   0   0 0% 0 92 24 96%
c {  0.00  1 0 0 0  0 0   0   0 0% 0 92 24 96%
c i  0.00  1 2 0 0  0 1   3   2 97% 1 92 23 92%
c i  0.00  1 2 0 0  0 1   4   2 98% 0 92 22 88%
c i  0.00  1 2 0 0  0 1   5   2 98% 0 92 21 84%
c i  0.00  1 2 0 0  0 1   6   2 95% 0 92 20 80%
c }  0.00  1 2 0 0  0 1   8   2 90% 0 92  0 0%
c 0  0.00  1 2 0 0  0 1   8   2 90% 0 92  0 0%
c
c ---- [ result ] ------------------------------------------------------------
c
s UNSATISFIABLE
c
c ---- [ profiling ] ---------------------------------------------------------
c
c           0.00   56.05 %  search
c           0.00   37.89 %  focused
c           0.00   18.16 %  parse
c           0.00    0.00 %  simplify
c =============================================
c           0.00  100.00 %  total
c
c ---- [ statistics ] --------------------------------------------------------
c
c conflicts:                                8             5930.32 per second
c decisions:                                9                1.12 per conflict
c propagations:                           109            80801    per second
c
c ---- [ resources ] ---------------------------------------------------------
c
c maximum-resident-set-size:          1052672 bytes          1 MB
c process-time:                                              0.00 seconds
c
c ---- [ shutting down ] -----------------------------------------------------
c
c exit 20
